words_hard_train/7762.qaiger
aag 198 24 0 1 174
2
4
12
14
18
20
32
34
46
48
60
62
74
76
88
90
150
162
192
226
260
294
328
360
397
6 2 5
8 3 4
10 7 9
16 12 14
22 19 21
24 18 20
26 23 25
28 16 26
30 29 25
36 33 35
38 32 34
40 37 39
42 31 40
44 43 39
50 47 49
52 46 48
54 51 53
56 45 54
58 57 53
64 61 63
66 60 62
68 65 67
70 59 68
72 71 67
78 75 77
80 74 76
82 79 81
84 73 82
86 85 81
92 89 91
94 88 90
96 93 95
98 87 96
100 99 95
102 11 101
104 10 100
106 103 105
108 13 15
110 109 17
112 17 27
114 113 29
116 111 115
118 30 41
120 119 43
122 116 121
124 44 55
126 125 57
128 122 127
130 58 69
132 131 71
134 128 133
136 72 83
138 137 85
140 134 139
142 86 97
144 143 99
146 140 145
148 106 146
152 151 15
154 150 14
156 153 155
158 157 110
160 159 115
164 150 162
166 151 163
168 165 167
170 169 21
172 168 20
174 171 173
176 155 175
178 154 174
180 177 179
182 161 181
184 158 114
186 183 185
188 186 117
190 179 173
194 167 192
196 166 193
198 195 197
200 199 35
202 198 34
204 201 203
206 190 205
208 191 204
210 207 209
212 117 120
214 213 123
216 210 214
218 189 217
220 211 215
222 219 221
224 209 203
228 197 226
230 196 227
232 229 231
234 233 49
236 232 48
238 235 237
240 224 239
242 225 238
244 241 243
246 123 126
248 247 129
250 244 248
252 223 251
254 245 249
256 253 255
258 243 237
262 231 260
264 230 261
266 263 265
268 267 63
270 266 62
272 269 271
274 258 273
276 259 272
278 275 277
280 129 132
282 281 135
284 278 282
286 257 285
288 279 283
290 287 289
292 277 271
296 265 294
298 264 295
300 297 299
302 301 77
304 300 76
306 303 305
308 292 307
310 293 306
312 309 311
314 135 138
316 315 141
318 312 316
320 291 319
322 313 317
324 321 323
326 311 305
330 299 328
332 298 329
334 331 333
336 335 91
338 334 90
340 337 339
342 326 341
344 327 340
346 343 345
348 141 144
350 349 147
352 346 350
354 325 353
356 347 351
358 355 357
362 360 4
364 361 5
366 363 365
368 366 333
370 367 332
372 369 371
374 345 339
376 373 375
378 372 374
380 377 379
382 358 380
384 149 383
386 359 381
388 107 147
390 387 389
392 384 391
394 148 382
396 393 395
i0 1 x1[7]
i1 2 y1[7]
i2 1 x1[0]
i3 2 y1[0]
i4 1 x1[1]
i5 2 y1[1]
i6 1 x1[2]
i7 2 y1[2]
i8 1 x1[3]
i9 2 y1[3]
i10 1 x1[4]
i11 2 y1[4]
i12 1 x1[5]
i13 2 y1[5]
i14 1 x1[6]
i15 2 y1[6]
i16 1 x2[0]
i17 1 x2[1]
i18 1 x2[2]
i19 1 x2[3]
i20 1 x2[4]
i21 1 x2[5]
i22 1 x2[6]
i23 1 x2[7]
o0 bv[0]
c
simplified
  >
    subtract
      1 x1
      unary minus
        2 y1
    subtract
      2 y1
      1 x2
