words_hard_train/7762.qaiger.qdimacs
p cnf 198 523
a 96 1 130 164 37 6 9 75 44 16 81 113 147 180 23 30 0
e 2 3 4 5 7 8 10 11 12 13 14 15 17 18 19 20 21 22 24 25 26 27 28 29 31 32 33 34 35 36 38 39 40 41 42 43 45 46 47 48 49 50 51 52 53 54 55 56 57 58 59 60 61 62 63 64 65 66 67 68 69 70 71 72 73 74 76 77 78 79 80 82 83 84 85 86 87 88 89 90 91 92 93 94 95 97 98 99 100 101 102 103 104 105 106 107 108 109 110 111 112 114 115 116 117 118 119 120 121 122 123 124 125 126 127 128 129 131 132 133 134 135 136 137 138 139 140 141 142 143 144 145 146 148 149 150 151 152 153 154 155 156 157 158 159 160 161 162 163 165 166 167 168 169 170 171 172 173 174 175 176 177 178 179 181 182 183 184 185 186 187 188 189 190 191 192 193 194 195 196 197 198 0
-1 2 3 0
1 -3 0
-2 -3 0
1 -2 4 0
-1 -4 0
2 -4 0
3 4 5 0
-3 -5 0
-4 -5 0
-6 -7 8 0
6 -8 0
7 -8 0
9 10 11 0
-9 -11 0
-10 -11 0
-9 -10 12 0
9 -12 0
10 -12 0
11 12 13 0
-11 -13 0
-12 -13 0
-8 -13 14 0
8 -14 0
13 -14 0
14 12 15 0
-14 -15 0
-12 -15 0
16 17 18 0
-16 -18 0
-17 -18 0
-16 -17 19 0
16 -19 0
17 -19 0
18 19 20 0
-18 -20 0
-19 -20 0
15 -20 21 0
-15 -21 0
20 -21 0
21 19 22 0
-21 -22 0
-19 -22 0
23 24 25 0
-23 -25 0
-24 -25 0
-23 -24 26 0
23 -26 0
24 -26 0
25 26 27 0
-25 -27 0
-26 -27 0
22 -27 28 0
-22 -28 0
27 -28 0
28 26 29 0
-28 -29 0
-26 -29 0
30 31 32 0
-30 -32 0
-31 -32 0
-30 -31 33 0
30 -33 0
31 -33 0
32 33 34 0
-32 -34 0
-33 -34 0
29 -34 35 0
-29 -35 0
34 -35 0
35 33 36 0
-35 -36 0
-33 -36 0
37 38 39 0
-37 -39 0
-38 -39 0
-37 -38 40 0
37 -40 0
38 -40 0
39 40 41 0
-39 -41 0
-40 -41 0
36 -41 42 0
-36 -42 0
41 -42 0
42 40 43 0
-42 -43 0
-40 -43 0
44 45 46 0
-44 -46 0
-45 -46 0
-44 -45 47 0
44 -47 0
45 -47 0
46 47 48 0
-46 -48 0
-47 -48 0
43 -48 49 0
-43 -49 0
48 -49 0
49 47 50 0
-49 -50 0
-47 -50 0
5 50 51 0
-5 -51 0
-50 -51 0
-5 -50 52 0
5 -52 0
50 -52 0
51 52 53 0
-51 -53 0
-52 -53 0
6 7 54 0
-6 -54 0
-7 -54 0
54 8 55 0
-54 -55 0
-8 -55 0
8 13 56 0
-8 -56 0
-13 -56 0
56 14 57 0
-56 -57 0
-14 -57 0
55 57 58 0
-55 -58 0
-57 -58 0
-15 20 59 0
15 -59 0
-20 -59 0
59 21 60 0
-59 -60 0
-21 -60 0
-58 60 61 0
58 -61 0
-60 -61 0
-22 27 62 0
22 -62 0
-27 -62 0
62 28 63 0
-62 -63 0
-28 -63 0
-61 63 64 0
61 -64 0
-63 -64 0
-29 34 65 0
29 -65 0
-34 -65 0
65 35 66 0
-65 -66 0
-35 -66 0
-64 66 67 0
64 -67 0
-66 -67 0
-36 41 68 0
36 -68 0
-41 -68 0
68 42 69 0
-68 -69 0
-42 -69 0
-67 69 70 0
67 -70 0
-69 -70 0
-43 48 71 0
43 -71 0
-48 -71 0
71 49 72 0
-71 -72 0
-49 -72 0
-70 72 73 0
70 -73 0
-72 -73 0
-53 -73 74 0
53 -74 0
73 -74 0
75 7 76 0
-75 -76 0
-7 -76 0
-75 -7 77 0
75 -77 0
7 -77 0
76 77 78 0
-76 -78 0
-77 -78 0
78 -55 79 0
-78 -79 0
55 -79 0
79 57 80 0
-79 -80 0
-57 -80 0
-75 -81 82 0
75 -82 0
81 -82 0
75 81 83 0
-75 -83 0
-81 -83 0
82 83 84 0
-82 -84 0
-83 -84 0
84 10 85 0
-84 -85 0
-10 -85 0
-84 -10 86 0
84 -86 0
10 -86 0
85 86 87 0
-85 -87 0
-86 -87 0
77 87 88 0
-77 -88 0
-87 -88 0
-77 -87 89 0
77 -89 0
87 -89 0
88 89 90 0
-88 -90 0
-89 -90 0
80 90 91 0
-80 -91 0
-90 -91 0
-79 -57 92 0
79 -92 0
57 -92 0
91 92 93 0
-91 -93 0
-92 -93 0
-93 58 94 0
93 -94 0
-58 -94 0
89 86 95 0
-89 -95 0
-86 -95 0
83 -96 97 0
-83 -97 0
96 -97 0
-83 96 98 0
83 -98 0
-96 -98 0
97 98 99 0
-97 -99 0
-98 -99 0
99 17 100 0
-99 -100 0
-17 -100 0
-99 -17 101 0
99 -101 0
17 -101 0
100 101 102 0
-100 -102 0
-101 -102 0
-95 102 103 0
95 -103 0
-102 -103 0
95 -102 104 0
-95 -104 0
102 -104 0
103 104 105 0
-103 -105 0
-104 -105 0
58 -60 106 0
-58 -106 0
60 -106 0
106 61 107 0
-106 -107 0
-61 -107 0
-105 -107 108 0
105 -108 0
107 -108 0
94 108 109 0
-94 -109 0
-108 -109 0
105 107 110 0
-105 -110 0
-107 -110 0
109 110 111 0
-109 -111 0
-110 -111 0
104 101 112 0
-104 -112 0
-101 -112 0
98 -113 114 0
-98 -114 0
113 -114 0
-98 113 115 0
98 -115 0
-113 -115 0
114 115 116 0
-114 -116 0
-115 -116 0
116 24 117 0
-116 -117 0
-24 -117 0
-116 -24 118 0
116 -118 0
24 -118 0
117 118 119 0
-117 -119 0
-118 -119 0
-112 119 120 0
112 -120 0
-119 -120 0
112 -119 121 0
-112 -121 0
119 -121 0
120 121 122 0
-120 -122 0
-121 -122 0
61 -63 123 0
-61 -123 0
63 -123 0
123 64 124 0
-123 -124 0
-64 -124 0
-122 -124 125 0
122 -125 0
124 -125 0
111 125 126 0
-111 -126 0
-125 -126 0
122 124 127 0
-122 -127 0
-124 -127 0
126 127 128 0
-126 -128 0
-127 -128 0
121 118 129 0
-121 -129 0
-118 -129 0
115 -130 131 0
-115 -131 0
130 -131 0
-115 130 132 0
115 -132 0
-130 -132 0
131 132 133 0
-131 -133 0
-132 -133 0
133 31 134 0
-133 -134 0
-31 -134 0
-133 -31 135 0
133 -135 0
31 -135 0
134 135 136 0
-134 -136 0
-135 -136 0
-129 136 137 0
129 -137 0
-136 -137 0
129 -136 138 0
-129 -138 0
136 -138 0
137 138 139 0
-137 -139 0
-138 -139 0
64 -66 140 0
-64 -140 0
66 -140 0
140 67 141 0
-140 -141 0
-67 -141 0
-139 -141 142 0
139 -142 0
141 -142 0
128 142 143 0
-128 -143 0
-142 -143 0
139 141 144 0
-139 -144 0
-141 -144 0
143 144 145 0
-143 -145 0
-144 -145 0
138 135 146 0
-138 -146 0
-135 -146 0
132 -147 148 0
-132 -148 0
147 -148 0
-132 147 149 0
132 -149 0
-147 -149 0
148 149 150 0
-148 -150 0
-149 -150 0
150 38 151 0
-150 -151 0
-38 -151 0
-150 -38 152 0
150 -152 0
38 -152 0
151 152 153 0
-151 -153 0
-152 -153 0
-146 153 154 0
146 -154 0
-153 -154 0
146 -153 155 0
-146 -155 0
153 -155 0
154 155 156 0
-154 -156 0
-155 -156 0
67 -69 157 0
-67 -157 0
69 -157 0
157 70 158 0
-157 -158 0
-70 -158 0
-156 -158 159 0
156 -159 0
158 -159 0
145 159 160 0
-145 -160 0
-159 -160 0
156 158 161 0
-156 -161 0
-158 -161 0
160 161 162 0
-160 -162 0
-161 -162 0
155 152 163 0
-155 -163 0
-152 -163 0
149 -164 165 0
-149 -165 0
164 -165 0
-149 164 166 0
149 -166 0
-164 -166 0
165 166 167 0
-165 -167 0
-166 -167 0
167 45 168 0
-167 -168 0
-45 -168 0
-167 -45 169 0
167 -169 0
45 -169 0
168 169 170 0
-168 -170 0
-169 -170 0
-163 170 171 0
163 -171 0
-170 -171 0
163 -170 172 0
-163 -172 0
170 -172 0
171 172 173 0
-171 -173 0
-172 -173 0
70 -72 174 0
-70 -174 0
72 -174 0
174 73 175 0
-174 -175 0
-73 -175 0
-173 -175 176 0
173 -176 0
175 -176 0
162 176 177 0
-162 -177 0
-176 -177 0
173 175 178 0
-173 -178 0
-175 -178 0
177 178 179 0
-177 -179 0
-178 -179 0
-180 -2 181 0
180 -181 0
2 -181 0
180 2 182 0
-180 -182 0
-2 -182 0
181 182 183 0
-181 -183 0
-182 -183 0
-183 166 184 0
183 -184 0
-166 -184 0
183 -166 185 0
-183 -185 0
166 -185 0
184 185 186 0
-184 -186 0
-185 -186 0
172 169 187 0
-172 -187 0
-169 -187 0
186 187 188 0
-186 -188 0
-187 -188 0
-186 -187 189 0
186 -189 0
187 -189 0
188 189 190 0
-188 -190 0
-189 -190 0
-179 -190 191 0
179 -191 0
190 -191 0
74 191 192 0
-74 -192 0
-191 -192 0
179 190 193 0
-179 -193 0
-190 -193 0
53 73 194 0
-53 -194 0
-73 -194 0
193 194 195 0
-193 -195 0
-194 -195 0
-192 195 196 0
192 -196 0
-195 -196 0
-74 -191 197 0
74 -197 0
191 -197 0
196 197 198 0
-196 -198 0
-197 -198 0
-198 0
